SAT
-1 -100 -99 -98 55 -49 2 95 -74 -31 65 32 96 3 67 -33 -38 30 86 54 -85 11 47 -20 -88 -77 -94 -70 59 -15 -34 41 5 -14 79 63 -8 91 64 -50 -75 78 36 -29 69 87 -92 -16 24 18 -48 -83 -46 28 -51 -56 81 68 -52 39 -57 -90 -22 -62 72 7 -26 40 -84 -66 60 -89 23 27 25 6 10 -76 17 -45 -13 9 -71 93 -73 12 37 -44 -19 80 42 -82 97 -43 21 61 4 53 35 58 0
